p wcnf 70 44 1
1 -1 6 
1 -2 7 
1 -3 8 
1 -4 9 
1 -5 10 
1 -11 1 
1 -12 1 
1 -13 1 
1 -14 1 
1 -15 1 
1 -11 16 
1 -11 17 
1 -11 18 
1 -11 19 
1 -12 17 
1 -12 18 
1 -12 19 
1 -12 20 
1 -13 18 
1 -13 19 
1 -13 20 
1 -13 21 
1 -14 19 
1 -14 20 
1 -14 21 
1 -14 22 
1 -15 20 
1 -15 21 
1 -15 22 
1 -15 23 
1 -24 1 
1 -25 1 
1 -26 1 
1 -27 1 
1 -28 1 
1 -24 29 
1 -24 30 
1 -24 31 
1 -24 32 
1 -24 33 
1 -25 30 
1 -25 31 
1 -25 32 
1 -25 33 
1 -25 34 
1 -26 31 
1 -26 32 
1 -26 33 
1 -26 34 
1 -26 35 
1 -27 32 
1 -27 33 
1 -27 34 
1 -27 35 
1 -27 36 
1 -28 33 
1 -28 34 
1 -28 35 
1 -28 36 
1 -28 37 
1 -38 11 
1 -39 11 
1 -38 40 
1 -38 41 
1 -39 41 
1 -39 42 
1 -43 24 38 
1 -43 44 
1 11 12 13 14 15 24 25 26 27 28 
1 11 12 13 14 15 24 25 26 27 28 38 39 
1 44 
